p wcnf 19 50 48
48 1 0
48 -7 0
48 -1 2 8 0
48 1 -8 0
48 -2 -8 0
48 -3 1 9 0
48 3 -9 0
48 -1 -9 0
48 -1 4 10 0
48 1 -10 0
48 -4 -10 0
48 -2 4 11 0
48 2 -11 0
48 -4 -11 0
48 -2 6 12 0
48 2 -12 0
48 -6 -12 0
48 -4 3 13 0
48 4 -13 0
48 -3 -13 0
48 -3 5 14 0
48 3 -14 0
48 -5 -14 0
48 -4 5 15 0
48 4 -15 0
48 -5 -15 0
48 -6 3 16 0
48 6 -16 0
48 -3 -16 0
48 -5 6 17 0
48 5 -17 0
48 -6 -17 0
48 -5 7 18 0
48 5 -18 0
48 -7 -18 0
48 -6 7 19 0
48 6 -19 0
48 -7 -19 0
5 8 0
3 9 0
7 10 0
4 11 0
4 12 0
1 13 0
3 14 0
6 15 0
2 16 0
3 17 0
4 18 0
5 19 0
